p cnf 42 58
-25 0
-8 -20 0
-8 -26 0
-8 -32 0
-8 -38 0
-14 0
-20 -26 0
-20 -32 0
-20 -38 0
-26 -32 0
-26 -38 0
-3 -21 0
-9 -21 0
-9 -27 0
-9 -33 0
-9 -39 0
-15 -21 0
-15 0
-39 0
-21 -27 0
-21 -33 0
-21 -39 0
-4 -10 0
-4 -16 0
-4 -22 0
-4 -28 0
-4 -34 0
-4 -40 0
-22 -34 0
-28 -34 0
-34 -40 0
-5 -23 0
-5 -29 0
-5 -35 0
-17 0
-11 -23 0
-11 -29 0
-11 -35 0
-11 -41 0
-17 -23 0
-17 -29 0
-17 0
-17 0
-23 -29 0
-23 -35 0
-23 -41 0
-29 -35 0
-29 -41 0
-24 0
-30 0
-36 0
4 1 0
11 9 8 0
18 0
23 22 21 20 0
29 27 26 25 0
35 34 33 32 0
41 40 38 0
